c Reduced graph for GEOM80 generated by Cyril Grelier
p edge 43 204
e 1 9
e 1 13
e 1 17
e 1 27
e 1 31
e 1 32
e 1 33
e 1 34
e 1 37
e 1 40
e 1 41
e 1 43
e 2 3
e 2 6
e 2 7
e 2 8
e 2 11
e 2 16
e 2 18
e 2 21
e 2 31
e 2 41
e 3 6
e 3 7
e 3 16
e 3 18
e 3 21
e 3 29
e 3 38
e 3 41
e 4 5
e 4 14
e 4 15
e 4 20
e 4 22
e 4 26
e 4 30
e 4 35
e 4 39
e 5 10
e 5 14
e 5 15
e 5 25
e 5 30
e 5 39
e 5 42
e 6 7
e 6 8
e 6 11
e 6 16
e 6 21
e 7 8
e 7 11
e 7 16
e 7 21
e 8 11
e 8 16
e 8 21
e 9 13
e 9 19
e 9 28
e 9 31
e 9 32
e 9 33
e 9 34
e 9 36
e 9 37
e 9 40
e 9 41
e 10 17
e 10 23
e 10 24
e 10 25
e 10 39
e 10 42
e 10 43
e 11 16
e 11 21
e 12 19
e 12 20
e 12 22
e 12 28
e 12 32
e 12 40
e 13 17
e 13 19
e 13 24
e 13 27
e 13 31
e 13 32
e 13 33
e 13 34
e 13 37
e 13 40
e 13 43
e 14 15
e 14 20
e 14 22
e 14 24
e 14 25
e 14 26
e 14 30
e 14 35
e 14 39
e 15 20
e 15 22
e 15 26
e 15 30
e 15 35
e 15 39
e 16 18
e 16 21
e 17 23
e 17 24
e 17 25
e 17 27
e 17 30
e 17 32
e 17 37
e 17 39
e 17 40
e 17 42
e 17 43
e 18 21
e 18 29
e 18 31
e 18 36
e 18 38
e 18 41
e 19 28
e 19 32
e 19 33
e 19 36
e 19 38
e 19 40
e 20 22
e 20 26
e 20 30
e 20 35
e 20 39
e 22 26
e 22 30
e 22 35
e 23 24
e 23 25
e 23 27
e 23 42
e 23 43
e 24 25
e 24 30
e 24 32
e 24 39
e 24 40
e 24 42
e 25 30
e 25 32
e 25 39
e 25 42
e 26 30
e 26 35
e 26 39
e 27 34
e 27 37
e 27 43
e 28 32
e 28 33
e 28 36
e 28 40
e 29 31
e 29 33
e 29 36
e 29 38
e 29 41
e 30 32
e 30 35
e 30 39
e 30 42
e 31 33
e 31 34
e 31 37
e 31 38
e 31 40
e 31 41
e 32 37
e 32 39
e 32 40
e 32 42
e 33 34
e 33 36
e 33 37
e 33 38
e 33 40
e 33 41
e 34 37
e 34 40
e 34 43
e 35 39
e 36 38
e 36 41
e 37 40
e 37 43
e 38 41
e 39 42
e 42 43
